SCIP Status        : solving was interrupted [time limit reached]
Total Time         :    3600.00
  solving          :    3600.00
  presolving       :       0.24 (included in solving)
  reading          :       0.00
  copying          :       0.66 (25 #copies) (minimal 0.00, maximal 0.04, average 0.03)
Original Problem   :
  Problem name     : bbbenchmark/g05_80.3.cut
  Variables        : 81 (80 binary, 0 integer, 0 implicit integer, 1 continuous)
  Constraints      : 1 initial, 1 maximal
  Objective        : minimize, 1 non-zeros (abs.min = 1, abs.max = 1)
Presolved Problem  :
  Problem name     : t_bbbenchmark/g05_80.3.cut
  Variables        : 1612 (80 binary, 0 integer, 1530 implicit integer, 2 continuous)
  Constraints      : 1534 initial, 5197 maximal
  Objective        : minimize, 1 non-zeros (abs.min = 1, abs.max = 1)
  Nonzeros         : 6307 constraint, 162 clique table
Presolvers         :   ExecTime  SetupTime  Calls  FixedVars   AggrVars   ChgTypes  ChgBounds   AddHoles    DelCons    AddCons   ChgSides   ChgCoefs
  boundshift       :       0.00       0.00      0          0          0          0          0          0          0          0          0          0
  convertinttobin  :       0.00       0.00      0          0          0          0          0          0          0          0          0          0
  domcol           :       0.00       0.00      1          0          0          0          0          0          0          0          0          0
  dualagg          :       0.00       0.00      0          0          0          0          0          0          0          0          0          0
  dualcomp         :       0.00       0.00      1          0          0          0          0          0          0          0          0          0
  dualinfer        :       0.00       0.00      0          0          0          0          0          0          0          0          0          0
  dualsparsify     :       0.00       0.00      1          0          0          0          0          0          0          0          0          0
  gateextraction   :       0.00       0.00      0          0          0          0          0          0          0          0          0          0
  implics          :       0.00       0.00      2          0          0          0          0          0          0          0          0          0
  inttobinary      :       0.00       0.00      0          0          0          0          0          0          0          0          0          0
  qpkktref         :       0.00       0.00      0          0          0          0          0          0          0          0          0          0
  redvub           :       0.00       0.00      0          0          0          0          0          0          0          0          0          0
  sparsify         :       0.00       0.00      1          0          0          0          0          0          0          0          0          0
  stuffing         :       0.00       0.00      0          0          0          0          0          0          0          0          0          0
  trivial          :       0.00       0.00      4          0          0          0          0          0          0          0          0          0
  tworowbnd        :       0.00       0.00      0          0          0          0          0          0          0          0          0          0
  dualfix          :       0.00       0.00      4          0          0          0          0          0          0          0          0          0
  genvbounds       :       0.00       0.00      0          0          0          0          0          0          0          0          0          0
  probing          :       0.12       0.00      1          0          0          0          0          0          0          0          0          0
  pseudoobj        :       0.00       0.00      1          0          0          0          1          0          0          0          0          0
  symmetry         :       0.00       0.00      0          0          0          0          0          0          0          0          0          0
  vbounds          :       0.00       0.00      1          0          0          0          0          0          0          0          0          0
  varbound         :       0.00       0.00      2          0          0          0          0          0          0          0          0          0
  and              :       0.00       0.01      2          0          0          0          0          0          0          0          0          0
  linear           :       0.00       0.00      2          0          0          0          0          0          0          0          0          0
  logicor          :       0.00       0.00      0          0          0          0          0          0          0          0          0          0
  bounddisjunction :       0.00       0.00      0          0          0          0          0          0          0          0          0          0
  nonlinear        :       0.12       0.01      5          0          0          0          1          0          0       1533          0          0
  benders          :       0.00       0.00      0          0          0          0          0          0          0          0          0          0
  components       :       0.00       0.00      1          0          0          0          0          0          0          0          0          0
  root node        :          -          -      -          0          -          -         25          -          -          -          -          -
Constraints        :     Number  MaxNumber  #Separate #Propagate    #EnfoLP    #EnfoRelax  #EnfoPS    #Check   #ResProp    Cutoffs    DomReds       Cuts    Applied      Conss   Children
  benderslp        :          0          0          0          0      45632          0          0       1594          0          0          0          0          0          0          0
  integral         :          0          0          0          0      45632          0          0       1594          0          0       2153          0          0       1503      89204
  varbound         :          1          1        248      87046          0          0          0         32          0          0        488          0          0          0          0
  and              :       1530       1530      53434     349124          1          0          0         32     129529          0    1508362       3279       3221          0          0
  linear           :          3+        11        248     349127          1          0          0         30        107          0      25354          0          0          0          0
  logicor          :          0+      3638          0      88008          0          0          0          0        240        308         52          0          0          0          0
  bounddisjunction :          0+        59          0      17529          0          0          0          0          0          2          1          0          0          0          0
  benders          :          0          0          0          0          1          0          0         32          0          0          0          0          0          0          0
  countsols        :          0          0          0          0          1          0          0         32          0          0          0          0          0          0          0
  components       :          0          0          0          0          0          0          0          0          0          0          0          0          0          0          0
Constraint Timings :  TotalTime  SetupTime   Separate  Propagate     EnfoLP     EnfoPS     EnfoRelax   Check    ResProp    SB-Prop
  benderslp        :       0.08       0.00       0.00       0.00       0.08       0.00       0.00       0.00       0.00       0.00
  integral         :      54.47       0.00       0.00       0.00      54.46       0.00       0.00       0.01       0.00       0.00
  varbound         :       0.07       0.00       0.01       0.06       0.00       0.00       0.00       0.00       0.00       0.00
  and              :      46.03       0.01      28.25      17.21       0.00       0.00       0.00       0.01       0.14       0.41
  linear           :       0.65       0.00       0.02       0.63       0.00       0.00       0.00       0.00       0.00       0.00
  logicor          :       3.39       0.00       0.00       3.37       0.00       0.00       0.00       0.00       0.00       0.02
  bounddisjunction :       0.09       0.00       0.00       0.09       0.00       0.00       0.00       0.00       0.00       0.00
  benders          :       0.00       0.00       0.00       0.00       0.00       0.00       0.00       0.00       0.00       0.00
  countsols        :       0.00       0.00       0.00       0.00       0.00       0.00       0.00       0.00       0.00       0.00
  components       :       0.04       0.00       0.00       0.04       0.00       0.00       0.00       0.00       0.00       0.00
Propagators        : #Propagate   #ResProp    Cutoffs    DomReds
  dualfix          :          2          0          0          0
  genvbounds       :          0          0          0          0
  nlobbt           :          0          0          0          0
  obbt             :          0          0          0          0
  probing          :          0          0          0          0
  pseudoobj        :     210330          0          0         26
  redcost          :     108415          0          0      50522
  rootredcost      :         12          0          0          0
  symmetry         :          0          0          0          0
  vbounds          :      46902          0          0          0
Propagator Timings :  TotalTime  SetupTime   Presolve  Propagate    ResProp    SB-Prop
  dualfix          :       0.00       0.00       0.00       0.00       0.00       0.00
  genvbounds       :       0.28       0.00       0.00       0.26       0.00       0.02
  nlobbt           :       0.00       0.00       0.00       0.00       0.00       0.00
  obbt             :       0.00       0.00       0.00       0.00       0.00       0.00
  probing          :       0.12       0.00       0.12       0.00       0.00       0.00
  pseudoobj        :       0.35       0.00       0.00       0.35       0.00       0.00
  redcost          :       6.26       0.00       0.00       6.25       0.00       0.01
  rootredcost      :       0.35       0.00       0.00       0.34       0.00       0.01
  symmetry         :       0.16       0.00       0.00       0.16       0.00       0.00
  vbounds          :       0.28       0.00       0.00       0.28       0.00       0.00
Conflict Analysis  :       Time      Calls    Success    DomReds  Conflicts   Literals    Reconvs ReconvLits   Dualrays   Nonzeros   LP Iters   (pool size: [10000,10000])
  propagation      :       0.01        310        260          -        283       44.3          0        0.0          -          -          -
  infeasible LP    :       0.00          1          1          -         24       71.0          0        0.0         15       72.5          0
  bound exceed. LP :      10.52       5300       3731          -      46246       66.4          1       37.0          0        0.0      22875
  strong branching :       0.00          0          0          -          0        0.0          0        0.0          -          -          0
  pseudo solution  :       0.00          0          0          -          0        0.0          0        0.0          -          -          -
  applied globally :       0.21          -          -          0      13377       70.7          -          -         15          -          -
  applied locally  :          -          -          -          0          0        0.0          -          -          0          -          -
Separators         :   ExecTime  SetupTime      Calls  RootCalls    Cutoffs    DomReds  FoundCuts ViaPoolAdd  DirectAdd    Applied ViaPoolApp  DirectApp      Conss
  cut pool         :       2.84          -      16357        286          -          -      32420     432802          -          -          -          -          -    (maximal pool size:       1977)
  aggregation      :     434.86       0.00       4474        248          0          0         20         28          0         13         13          0          0
  > cmir           :          -          -          -          -          -          -          -         28          0         13         13          0          -
  > flowcover      :          -          -          -          -          -          -          -          0          0          0          0          0          -
  > knapsackcover  :          -          -          -          -          -          -          -          0          0          0          0          0          -
  cgmip            :       0.00       0.00          0          0          0          0          0          0          0          0          0          0          0
  clique           :       0.00       0.00        248        248          0          0          0          0          0          0          0          0          0
  closecuts        :       0.00       0.00          0          0          0          0          0          0          0          0          0          0          0
  convexproj       :       0.00       0.00          0          0          0          0          0          0          0          0          0          0          0
  disjunctive      :       0.00       0.00          0          0          0          0          0          0          0          0          0          0          0
  eccuts           :       0.00       0.00          0          0          0          0          0          0          0          0          0          0          0
  gauge            :       0.00       0.00          0          0          0          0          0          0          0          0          0          0          0
  gomory           :       0.00       0.00          0          0          0          0          0          0          0          0          0          0          0
  > gomorymi       :          -          -          -          -          -          -          -          0          0          0          0          0          -
  > strongcg       :          -          -          -          -          -          -          -          0          0          0          0          0          -
  impliedbounds    :       0.27       0.00       4474        248          0          0          1          1          0          1          1          0          0
  interlattice     :       0.49       0.00        160        160          0          0        160          0        160        158          0        158          0
  interminor       :       0.00       0.00          0          0          0          0          0          0          0          0          0          0          0
  intersub         :       1.02       0.00         40         40          0          0         40          0         40         40          0         40          0
  intobj           :       0.00       0.00          0          0          0          0          0          0          0          0          0          0          0
  mcf              :       0.00       0.00          1          1          0          0          0          0          0          0          0          0          0
  minor            :       0.01       0.00          0          0          0          0          0          0          0          0          0          0          0
  mixing           :       0.02       0.00       4475        248          0          0          0          0          0          0          0          0          0
  oddcycle         :       0.00       0.00          0          0          0          0          0          0          0          0          0          0          0
  rapidlearning    :       0.00       0.00          0          0          0          0          0          0          0          0          0          0          0
  rlt              :       0.00       0.00         10         10          0          0          0          0          0          0          0          0          0
  zerohalf         :      33.76       0.00       3868         20          0          0      32399     432773          0      82572      82572          0          0
Cutselectors       :   ExecTime  SetupTime      Calls  RootCalls   Selected     Forced   Filtered  RootSelec   RootForc   RootFilt 
  hybrid           :       0.42       0.00       9906        248      86005          0     350276        401          0         18
Pricers            :   ExecTime  SetupTime      Calls       Vars
  problem variables:       0.00          -          0          0
Branching Rules    :   ExecTime  SetupTime   BranchLP  BranchExt   BranchPS    Cutoffs    DomReds       Cuts      Conss   Children
  allfullstrong    :       0.00       0.00          0          0          0          0          0          0          0          0
  cloud            :       0.00       0.00          0          0          0          0          0          0          0          0
  distribution     :       0.00       0.00          0          0          0          0          0          0          0          0
  fullstrong       :       0.00       0.00          0          0          0          0          0          0          0          0
  inference        :       0.00       0.00          0          0          0          0          0          0          0          0
  leastinf         :       0.00       0.00          0          0          0          0          0          0          0          0
  lookahead        :       0.00       0.00          0          0          0          0          0          0          0          0
  mostinf          :       0.00       0.00          0          0          0          0          0          0          0          0
  multaggr         :       0.00       0.00          0          0          0          0          0          0          0          0
  nodereopt        :       0.00       0.00          0          0          0          0          0          0          0          0
  pscost           :       0.00       0.00          0          0          0          0          0          0          0          0
  random           :       0.00       0.00          0          0          0          0          0          0          0          0
  relpscost        :      54.25       0.00      45631          0          0          0       2153          0       1503      89204
  vanillafullstrong:       0.00       0.00          0          0          0          0          0          0          0          0
Primal Heuristics  :   ExecTime  SetupTime      Calls      Found       Best
  LP solutions     :       0.00          -          -          1          1
  relax solutions  :       0.00          -          -          0          0
  pseudo solutions :       0.00          -          -          0          0
  strong branching :       0.03          -          -          0          0
  actconsdiving    :       0.00       0.00          0          0          0
  adaptivediving   :       3.58       0.00         34          0          0
  alns             :       3.52       0.00         16          3          3
  bound            :       0.00       0.00          0          0          0
  clique           :       0.00       0.00          1          0          0
  coefdiving       :       0.00       0.00          0          0          0
  completesol      :       0.00       0.00          0          0          0
  conflictdiving   :      24.86       0.00        274          0          0
  crossover        :       0.56       0.00          6          3          3
  dins             :       0.00       0.00          0          0          0
  distributiondivin:      44.04       0.00        274          0          0
  dps              :       0.00       0.00          0          0          0
  dualval          :       0.00       0.00          0          0          0
  farkasdiving     :       0.00       0.00          0          0          0
  feaspump         :       0.00       0.00          0          0          0
  fixandinfer      :       0.00       0.00          0          0          0
  fracdiving       :      29.26       0.00        274          0          0
  gins             :       0.10       0.00          0          0          0
  guideddiving     :      27.82       0.00        274          1          1
  indicator        :       0.05       0.00          0          0          0
  indicatordiving  :       0.00       0.00          0          0          0
  intdiving        :       0.00       0.00          0          0          0
  intshifting      :       0.28       0.00         29          0          0
  linesearchdiving :      27.12       0.00        274          0          0
  localbranching   :       0.00       0.00          0          0          0
  locks            :       0.01       0.00          1          0          0
  lpface           :       0.16       0.00          0          0          0
  mpec             :     101.36       0.00          7          0          0
  multistart       :       0.00       0.00          0          0          0
  mutation         :       0.00       0.00          0          0          0
  nlpdiving        :       6.94       0.00         10          0          0
  objpscostdiving  :      76.35       0.00         85          7          2
  octane           :       0.00       0.00          0          0          0
  ofins            :       0.06       0.00          0          0          0
  oneopt           :       0.10       0.00         23          0          0
  padm             :       0.00       0.00          0          0          0
  proximity        :       0.00       0.00          0          0          0
  pscostdiving     :      32.48       0.00        275          1          1
  randrounding     :       0.75       0.00       1558          0          0
  rens             :       0.00       0.00          0          0          0
  reoptsols        :       0.00       0.00          0          0          0
  repair           :       0.00       0.00          0          0          0
  rins             :       1.54       0.00          2          0          0
  rootsoldiving    :      38.10       0.00         37          1          0
  rounding         :       0.94       0.00       3177          0          0
  shiftandpropagate:       0.00       0.00          0          0          0
  shifting         :      55.94       0.00      12215         10         10
  simplerounding   :       0.05       0.00          0          0          0
  subnlp           :      81.60       0.00          0          0          0
  trivial          :       0.00       0.00          2          2          2
  trivialnegation  :       0.00       0.00          0          0          0
  trustregion      :       0.00       0.00          0          0          0
  trysol           :       0.08       0.00          0          0          0
  twoopt           :       0.00       0.00          0          0          0
  undercover       :       0.46       0.00          1          1          1
  vbounds          :       0.00       0.00          0          0          0
  veclendiving     :      28.04       0.00        274          0          0
  zeroobj          :       0.00       0.00          0          0          0
  zirounding       :       0.51       0.00       1000          0          0
  other solutions  :          -          -          -          0          -
Diving (single)    :      Calls      Nodes   LP Iters Backtracks  Conflicts   MinDepth   MaxDepth   AvgDepth  RoundSols  NLeafSols  MinSolDpt  MaxSolDpt  AvgSolDpt
  actconsdiving    :          0          -          -          -          -          -          -          -          -          -          -          -          -
  coefdiving       :          0          -          -          -          -          -          -          -          -          -          -          -          -
  conflictdiving   :        274       9834     207155        305       6562         40         65       52.0          0          -          -          -          -
  distributiondivin:        274       6668     294248        314       3879         33         51       40.9          0          -          -          -          -
  farkasdiving     :          0          -          -          -          -          -          -          -          -          -          -          -          -
  fracdiving       :        274      26320     238499        219       3070         45        471      112.9          0          -          -          -          -
  guideddiving     :        274      24186     231895        154       3089         47        411      105.0          0          1         77         77       77.0
  indicatordiving  :          0          -          -          -          -          -          -          -          -          -          -          -          -
  linesearchdiving :        274       8172     234086        324       7372         34         67       46.3          0          -          -          -          -
  pscostdiving     :        275       9010     279097        290       5873         38         59       49.2          0          1         59         59       59.0
  veclendiving     :        274       8307     234179        286       9330         38         61       46.4          0          -          -          -          -
Diving (adaptive)  :      Calls      Nodes   LP Iters Backtracks  Conflicts   MinDepth   MaxDepth   AvgDepth  RoundSols  NLeafSols  MinSolDpt  MaxSolDpt  AvgSolDpt
  actconsdiving    :          9        223       8383          7         80         39         46       42.0          0          -          -          -          -
  coefdiving       :         11        355       7866         11        328         40         58       49.4          0          -          -          -          -
  conflictdiving   :          0          -          -          -          -          -          -          -          -          -          -          -          -
  distributiondivin:          0          -          -          -          -          -          -          -          -          -          -          -          -
  farkasdiving     :          0          -          -          -          -          -          -          -          -          -          -          -          -
  fracdiving       :          2        158       1092          2         20         82        122      102.0          0          -          -          -          -
  guideddiving     :          4        422       3860          3         60         90        171      122.5          0          -          -          -          -
  indicatordiving  :          0          -          -          -          -          -          -          -          -          -          -          -          -
  linesearchdiving :          2         69       1056          2         69         51         57       54.0          0          -          -          -          -
  pscostdiving     :          1         39       1099          1         28         55         55       55.0          0          -          -          -          -
  veclendiving     :          5        155       4346          5        133         40         57       46.6          0          -          -          -          -
Neighborhoods      :      Calls  SetupTime  SolveTime SolveNodes       Sols       Best       Exp3  EpsGreedy        UCB TgtFixRate  Opt  Inf Node Stal  Sol  Usr Othr Actv
  rens             :          1       0.04       0.01          0          0          0    0.00000   -1.00000    0.56733      0.700    0    1    0    0    0    0    0    1
  rins             :          2       0.08       0.06         39          0          0    0.00000   -1.00000    0.50043      0.550    0    2    0    0    0    0    0    1
  mutation         :          1       0.02       0.01          1          0          0    0.00000   -1.00000    0.56645      0.700    0    1    0    0    0    0    0    1
  localbranching   :          2       0.09       0.10         62          0          0    0.00000   -1.00000    0.47261      0.850    0    1    0    1    0    0    0    1
  crossover        :          2       0.08       0.13         59          0          0    0.00000   -1.00000    0.47261      0.850    0    1    0    1    0    0    0    1
  proximity        :          1       0.05       0.01          1          0          0    0.00000   -1.00000    0.56633      0.700    0    1    0    0    0    0    0    1
  zeroobjective    :          6       0.32       2.43        668          3          3    0.00000   -1.00000    0.47621      0.633    3    0    0    3    0    0    0    1
  dins             :          1       0.02       0.01          0          0          0    0.00000   -1.00000    0.56733      0.700    0    1    0    0    0    0    0    1
  trustregion      :          0       0.00       0.00          0          0          0    0.00000   -1.00000    1.00000      0.900    0    0    0    0    0    0    0    0
Expressions        :   #IntEval  IntEvalTi   #RevProp  RevPropTi    DomReds    Cutoffs  #Estimate  EstimTime  Branching  #Simplify SimplifyTi Simplified
  pow              :          0       0.00          0       0.00          0          0          0       0.00          0          0       0.00          0
  prod             :       6320       0.01          0       0.00          0          0          0       0.00          0       4690       0.00          0
  sum              :          8       0.00          2       0.00          0          0          0       0.00          0          3       0.02          2
  var              :       5485       0.00          0       0.00          0          0          0       0.00          0      11154       0.01          0
  varidx           :          0       0.00          0       0.00          0          0          0       0.00          0          0       0.00          0
LP                 :       Time      Calls Iterations  Iter/call   Iter/sec  Time-0-It Calls-0-It    ItLimit
  primal LP        :     123.17       7054          0       0.00       0.00     123.14       7054
  dual LP          :    2216.05      93511    9104437     105.56    4108.41       3.60       7262
  lex dual LP      :       0.00          0          0       0.00          -
  barrier LP       :       0.00          0          0       0.00          -       0.00          0
  resolve instable :       0.00          0          0       0.00          -
  diving/probing LP:     293.40      10915    2282851     209.15    7780.68
  strong branching :      33.24       2200     234344     106.52    7050.06          -          -         19
    (at root node) :          -         19      11069     582.58          -
  conflict analysis:       4.41       2354      22875       9.72    5187.07
NLP relaxation     :
  solve time       :       6.94 (10 calls)
  convexity        :  nonconvex (4 linear rows, 0 convex ineq., 0 nonconvex ineq., 1530 nonlinear eq. or two-sided ineq.)
NLP Solvers        :  #Problems  ProblemTi    #Solves  SolveTime      #Iter  Time/Iter      #Okay #TimeLimit #IterLimit #LObjLimit #Interrupt  #NumError #EvalError  #OutOfMem #LicenseEr #OtherTerm   #GlobOpt    #LocOpt  #Feasible #LocInfeas #GlobInfea #Unbounded   #Unknown
  ipopt            :          8       3.70         24     108.43       1632       0.07         24          0          0          0          0          0          0          0          0          0          0          0          0         14          0          0         10
B&B Tree           :
  number of runs   :          1
  nodes            :      75328 (44602 internal, 30726 leaves)
  feasible leaves  :          1
  infeas. leaves   :         14
  objective leaves :      30710
  nodes (total)    :      75328 (44602 internal, 30726 leaves)
  nodes left       :      13872
  max depth        :         50
  max depth (total):         50
  backtracks       :      16588 (22.0%)
  early backtracks :          0 (0.0%)
  nodes exc. ref.  :          0 (0.0%)
  delayed cutoffs  :          0
  repropagations   :       2064 (375 domain reductions, 0 cutoffs)
  avg switch length:       4.64
  switching time   :     137.89
Estim. Tree Size   :     150666
Estimation Tree    : 89205 nodes (75333 visited, 44602 internal, 30731 leaves, 13872 open), weight: 0.0000 completed 0.1019
Estimations        :      estim      value      trend resolution     smooth
  wbe              : 12307924138          -          -          -          -
  tree-profile     :         -1          -          -          -          -
  gap              :    1962989    0.76866    0.00001         32    2222754
  tree-weight      :     150666    0.00000    0.00000         32     150549
  leaf-frequency   :    1806810    0.40793    0.00000         32    1477537
  ssg              :    2545139    0.83911   -0.00002         32    2880507
  open-nodes       :     150666 13872.00000    5.28121         32     150549
Root Node          :
  First LP value   : -1.00000000000000e+00
  First LP Iters   :       1020 (20400.00 Iter/sec)
  First LP Time    :       0.05
  Final Dual Bound : -9.01614030490990e-01
  Final Root Iters :       9338
  Root LP Estimate : -4.80628555663754e-01
Solution           :
  Solutions found  :         30 (24 improvements)
  First Solution   : +1.00000000000000e+05   (in run 1, after 0 nodes, 0.05 seconds, depth 0, found by <trivial>)
  Gap First Sol.   :   infinite
  Gap Last Sol.    :      36.11 %
  Primal Bound     : -5.75949367088607e-01   (in run 1, after 20066 nodes, 1079.86 seconds, depth 34, found by <crossover>)
  Dual Bound       : -7.49287974683545e-01
  Gap              :      30.10 %
Integrals          :      Total       Avg%
  primal-dual      :   94807.29      26.34
  primal-ref       :          -          - (not evaluated)
  dual-ref         :          -          - (not evaluated)
